p cnf 524 1233
a 433 436 440 328 333 336 340 343 459 351 465 356 361 364 368 371 485 300 379 382 494 389 393 396 402 405 409 412 417 512 422 425 7 13 24 30 2 1 40 18 6 12 35 23 29 50 45 60 55 70 65 80 75 85 90 95 105 100 110 115 120 130 125 135 140 145 176 158 150 154 171 163 167 186 181 190 199 194 204 212 208 222 217 227 232 237 247 242 252 261 257 266 275 271 280 285 290 295 299 310 305 314 318 0
d 420 2 512 314 7 318 0
d 387 2 494 0
d 322 433 2 0
d 326 440 2 0
d 324 436 186 190 2 0
d 355 261 465 2 0
d 349 459 2 0
d 378 295 299 310 2 485 0
d 262 13 257 30 7 0
d 3 2 0
d 4 1 2 0
d 5 1 2 0
d 8 7 0
d 9 6 7 0
d 10 6 7 0
d 11 1 2 6 7 0
d 14 13 0
d 15 12 13 0
d 16 12 13 0
d 17 1 2 6 7 12 13 0
d 19 6 12 0
d 20 18 6 12 0
d 21 18 6 12 0
d 22 1 2 6 7 12 13 18 0
d 25 24 0
d 26 23 24 0
d 27 23 24 0
d 28 1 2 6 7 12 13 18 23 24 0
d 31 30 0
d 32 29 30 0
d 33 29 30 0
d 34 1 2 6 7 12 13 18 23 24 29 30 0
d 36 23 29 0
d 37 35 23 29 0
d 38 35 23 29 0
d 39 1 2 6 7 12 13 18 23 24 29 30 35 0
d 41 18 35 0
d 42 40 18 35 0
d 43 40 18 35 0
d 44 1 2 6 7 12 13 18 23 24 29 30 35 40 0
d 46 7 12 0
d 47 45 7 12 0
d 48 45 7 12 0
d 49 1 2 6 7 12 13 18 23 24 29 30 35 40 45 0
d 51 45 35 0
d 52 50 45 35 0
d 53 50 45 35 0
d 54 1 2 6 7 12 13 18 23 24 29 30 35 40 45 50 0
d 56 6 13 0
d 57 55 6 13 0
d 58 55 6 13 0
d 59 1 2 6 7 12 13 18 23 24 29 30 35 40 45 50 55 0
d 61 55 35 0
d 62 60 55 35 0
d 63 60 55 35 0
d 64 1 2 6 7 12 13 18 23 24 29 30 35 40 45 50 55 60 0
d 66 7 13 0
d 67 65 7 13 0
d 68 65 7 13 0
d 69 1 2 6 7 12 13 18 23 24 29 30 35 40 45 50 55 60 65 0
d 71 65 35 0
d 72 70 65 35 0
d 73 70 65 35 0
d 74 1 2 6 7 12 13 18 23 24 29 30 35 40 45 50 55 60 65 70 0
d 76 24 29 0
d 77 75 24 29 0
d 78 75 24 29 0
d 79 1 2 6 7 12 13 18 23 24 29 30 35 40 45 50 55 60 65 70 75 0
d 81 18 75 0
d 82 80 18 75 0
d 83 80 18 75 0
d 84 1 2 6 7 12 13 18 23 24 29 30 35 40 45 50 55 60 65 70 75 80 0
d 86 45 75 0
d 87 85 45 75 0
d 88 85 45 75 0
d 89 1 2 6 7 12 13 18 23 24 29 30 35 40 45 50 55 60 65 70 75 80 85 0
d 91 55 75 0
d 92 90 55 75 0
d 93 90 55 75 0
d 94 1 2 6 7 12 13 18 23 24 29 30 35 40 45 50 55 60 65 70 75 80 85 90 0
d 96 65 75 0
d 97 95 65 75 0
d 98 95 65 75 0
d 99 1 2 6 7 12 13 18 23 24 29 30 35 40 45 50 55 60 65 70 75 80 85 90 95 0
d 101 23 30 0
d 102 100 23 30 0
d 103 100 23 30 0
d 104 1 2 6 7 12 13 18 23 24 29 30 35 40 45 50 55 60 65 70 75 80 85 90 95 100 0
d 106 18 100 0
d 107 105 18 100 0
d 108 105 18 100 0
d 109 1 2 6 7 12 13 18 23 24 29 30 35 40 45 50 55 60 65 70 75 80 85 90 95 100 105 0
d 111 45 100 0
d 112 110 45 100 0
d 113 110 45 100 0
d 114 1 2 6 7 12 13 18 23 24 29 30 35 40 45 50 55 60 65 70 75 80 85 90 95 100 105 110 0
d 116 55 100 0
d 117 115 55 100 0
d 118 115 55 100 0
d 119 1 2 6 7 12 13 18 23 24 29 30 35 40 45 50 55 60 65 70 75 80 85 90 95 100 105 110 115 0
d 121 65 100 0
d 122 120 65 100 0
d 123 120 65 100 0
d 124 1 2 6 7 12 13 18 23 24 29 30 35 40 45 50 55 60 65 70 75 80 85 90 95 100 105 110 115 120 0
d 126 24 30 0
d 127 125 24 30 0
d 128 125 24 30 0
d 129 1 2 6 7 12 13 18 23 24 29 30 35 40 45 50 55 60 65 70 75 80 85 90 95 100 105 110 115 120 125 0
d 131 18 125 0
d 132 130 18 125 0
d 133 130 18 125 0
d 134 1 2 6 7 12 13 18 23 24 29 30 35 40 45 50 55 60 65 70 75 80 85 90 95 100 105 110 115 120 125 130 0
d 136 45 125 0
d 137 135 45 125 0
d 138 135 45 125 0
d 139 1 2 6 7 12 13 18 23 24 29 30 35 40 45 50 55 60 65 70 75 80 85 90 95 100 105 110 115 120 125 130 135 0
d 141 55 125 0
d 142 140 55 125 0
d 143 140 55 125 0
d 144 1 2 6 7 12 13 18 23 24 29 30 35 40 45 50 55 60 65 70 75 80 85 90 95 100 105 110 115 120 125 130 135 140 0
d 146 65 125 0
d 147 145 65 125 0
d 148 145 65 125 0
d 149 1 2 6 7 12 13 18 23 24 29 30 35 40 45 50 55 60 65 70 75 80 85 90 95 100 105 110 115 120 125 130 135 140 145 0
d 151 150 7 0
d 152 150 7 0
d 153 1 2 6 7 12 13 18 23 24 29 30 35 40 45 50 55 60 65 70 75 80 85 90 95 100 105 110 115 120 125 130 135 140 145 150 0
d 155 154 13 0
d 156 154 13 0
d 157 1 2 6 7 12 13 18 23 24 29 30 35 40 45 50 55 60 65 70 75 80 85 90 95 100 105 110 115 120 125 130 135 140 145 150 154 0
d 159 150 154 0
d 160 158 150 154 0
d 161 158 150 154 0
d 162 1 2 6 7 12 13 18 23 24 29 30 35 40 45 50 55 60 65 70 75 80 85 90 95 100 105 110 115 120 125 130 135 140 145 150 154 158 0
d 164 163 24 0
d 165 163 24 0
d 166 1 2 6 7 12 13 18 23 24 29 30 35 40 45 50 55 60 65 70 75 80 85 90 95 100 105 110 115 120 125 130 135 140 145 150 154 158 163 0
d 168 167 30 0
d 169 167 30 0
d 170 1 2 6 7 12 13 18 23 24 29 30 35 40 45 50 55 60 65 70 75 80 85 90 95 100 105 110 115 120 125 130 135 140 145 150 154 158 163 167 0
d 172 163 167 0
d 173 171 163 167 0
d 174 171 163 167 0
d 175 1 2 6 7 12 13 18 23 24 29 30 35 40 45 50 55 60 65 70 75 80 85 90 95 100 105 110 115 120 125 130 135 140 145 150 154 158 163 167 171 0
d 177 158 171 0
d 178 176 158 171 0
d 179 176 158 171 0
d 180 1 2 6 7 12 13 18 23 24 29 30 35 40 45 50 55 60 65 70 75 80 85 90 95 100 105 110 115 120 125 130 135 140 145 150 154 158 163 167 171 176 0
d 182 7 154 0
d 183 181 7 154 0
d 184 181 7 154 0
d 185 1 2 6 7 12 13 18 23 24 29 30 35 40 45 50 55 60 65 70 75 80 85 90 95 100 105 110 115 120 125 130 135 140 145 150 154 158 163 167 171 176 181 0
d 187 186 181 0
d 188 186 181 0
d 189 1 2 6 7 12 13 18 23 24 29 30 35 40 45 50 55 60 65 70 75 80 85 90 95 100 105 110 115 120 125 130 135 140 145 150 154 158 163 167 171 176 181 186 0
d 191 190 171 0
d 192 190 171 0
d 193 1 2 6 7 12 13 18 23 24 29 30 35 40 45 50 55 60 65 70 75 80 85 90 95 100 105 110 115 120 125 130 135 140 145 150 154 158 163 167 171 176 181 186 190 0
d 195 150 13 0
d 196 194 150 13 0
d 197 194 150 13 0
d 198 1 2 6 7 12 13 18 23 24 29 30 35 40 45 50 55 60 65 70 75 80 85 90 95 100 105 110 115 120 125 130 135 140 145 150 154 158 163 167 171 176 181 186 190 194 0
d 200 194 171 0
d 201 199 194 171 0
d 202 199 194 171 0
d 203 1 2 6 7 12 13 18 23 24 29 30 35 40 45 50 55 60 65 70 75 80 85 90 95 100 105 110 115 120 125 130 135 140 145 150 154 158 163 167 171 176 181 186 190 194 199 0
d 205 204 2 0
d 206 204 2 0
d 207 1 2 6 7 12 13 18 23 24 29 30 35 40 45 50 55 60 65 70 75 80 85 90 95 100 105 110 115 120 125 130 135 140 145 150 154 158 163 167 171 176 181 186 190 194 199 204 0
d 209 208 7 13 0
d 210 208 7 13 0
d 211 1 2 6 7 12 13 18 23 24 29 30 35 40 45 50 55 60 65 70 75 80 85 90 95 100 105 110 115 120 125 130 135 140 145 150 154 158 163 167 171 176 181 186 190 194 199 204 208 0
d 213 208 171 0
d 214 212 208 171 0
d 215 212 208 171 0
d 216 1 2 6 7 12 13 18 23 24 29 30 35 40 45 50 55 60 65 70 75 80 85 90 95 100 105 110 115 120 125 130 135 140 145 150 154 158 163 167 171 176 181 186 190 194 199 204 208 212 0
d 218 24 167 0
d 219 217 24 167 0
d 220 217 24 167 0
d 221 1 2 6 7 12 13 18 23 24 29 30 35 40 45 50 55 60 65 70 75 80 85 90 95 100 105 110 115 120 125 130 135 140 145 150 154 158 163 167 171 176 181 186 190 194 199 204 208 212 217 0
d 223 158 217 0
d 224 222 158 217 0
d 225 222 158 217 0
d 226 1 2 6 7 12 13 18 23 24 29 30 35 40 45 50 55 60 65 70 75 80 85 90 95 100 105 110 115 120 125 130 135 140 145 150 154 158 163 167 171 176 181 186 190 194 199 204 208 212 217 222 0
d 228 181 217 0
d 229 227 181 217 0
d 230 227 181 217 0
d 231 1 2 6 7 12 13 18 23 24 29 30 35 40 45 50 55 60 65 70 75 80 85 90 95 100 105 110 115 120 125 130 135 140 145 150 154 158 163 167 171 176 181 186 190 194 199 204 208 212 217 222 227 0
d 233 194 217 0
d 234 232 194 217 0
d 235 232 194 217 0
d 236 1 2 6 7 12 13 18 23 24 29 30 35 40 45 50 55 60 65 70 75 80 85 90 95 100 105 110 115 120 125 130 135 140 145 150 154 158 163 167 171 176 181 186 190 194 199 204 208 212 217 222 227 232 0
d 238 208 217 0
d 239 237 208 217 0
d 240 237 208 217 0
d 241 1 2 6 7 12 13 18 23 24 29 30 35 40 45 50 55 60 65 70 75 80 85 90 95 100 105 110 115 120 125 130 135 140 145 150 154 158 163 167 171 176 181 186 190 194 199 204 208 212 217 222 227 232 237 0
d 243 163 30 0
d 244 242 163 30 0
d 245 242 163 30 0
d 246 1 2 6 7 12 13 18 23 24 29 30 35 40 45 50 55 60 65 70 75 80 85 90 95 100 105 110 115 120 125 130 135 140 145 150 154 158 163 167 171 176 181 186 190 194 199 204 208 212 217 222 227 232 237 242 0
d 248 158 242 0
d 249 247 158 242 0
d 250 247 158 242 0
d 251 1 2 6 7 12 13 18 23 24 29 30 35 40 45 50 55 60 65 70 75 80 85 90 95 100 105 110 115 120 125 130 135 140 145 150 154 158 163 167 171 176 181 186 190 194 199 204 208 212 217 222 227 232 237 242 247 0
d 253 181 242 0
d 254 252 181 242 0
d 255 252 181 242 0
d 256 1 2 6 7 12 13 18 23 24 29 30 35 40 45 50 55 60 65 70 75 80 85 90 95 100 105 110 115 120 125 130 135 140 145 150 154 158 163 167 171 176 181 186 190 194 199 204 208 212 217 222 227 232 237 242 247 252 0
d 258 257 163 0
d 259 257 163 0
d 260 1 2 6 7 12 13 18 23 24 29 30 35 40 45 50 55 60 65 70 75 80 85 90 95 100 105 110 115 120 125 130 135 140 145 150 154 158 163 167 171 176 181 186 190 194 199 204 208 212 217 222 227 232 237 242 247 252 257 0
d 263 261 13 257 30 7 0
d 264 261 13 257 30 7 0
d 265 1 2 6 7 12 13 18 23 24 29 30 35 40 45 50 55 60 65 70 75 80 85 90 95 100 105 110 115 120 125 130 135 140 145 150 154 158 163 167 171 176 181 186 190 194 199 204 208 212 217 222 227 232 237 242 247 252 257 261 0
d 267 208 242 0
d 268 266 208 242 0
d 269 266 208 242 0
d 270 1 2 6 7 12 13 18 23 24 29 30 35 40 45 50 55 60 65 70 75 80 85 90 95 100 105 110 115 120 125 130 135 140 145 150 154 158 163 167 171 176 181 186 190 194 199 204 208 212 217 222 227 232 237 242 247 252 257 261 266 0
d 272 271 24 30 0
d 273 271 24 30 0
d 274 1 2 6 7 12 13 18 23 24 29 30 35 40 45 50 55 60 65 70 75 80 85 90 95 100 105 110 115 120 125 130 135 140 145 150 154 158 163 167 171 176 181 186 190 194 199 204 208 212 217 222 227 232 237 242 247 252 257 261 266 271 0
d 276 158 271 0
d 277 275 158 271 0
d 278 275 158 271 0
d 279 1 2 6 7 12 13 18 23 24 29 30 35 40 45 50 55 60 65 70 75 80 85 90 95 100 105 110 115 120 125 130 135 140 145 150 154 158 163 167 171 176 181 186 190 194 199 204 208 212 217 222 227 232 237 242 247 252 257 261 266 271 275 0
d 281 181 271 0
d 282 280 181 271 0
d 283 280 181 271 0
d 284 1 2 6 7 12 13 18 23 24 29 30 35 40 45 50 55 60 65 70 75 80 85 90 95 100 105 110 115 120 125 130 135 140 145 150 154 158 163 167 171 176 181 186 190 194 199 204 208 212 217 222 227 232 237 242 247 252 257 261 266 271 275 280 0
d 286 194 271 0
d 287 285 194 271 0
d 288 285 194 271 0
d 289 1 2 6 7 12 13 18 23 24 29 30 35 40 45 50 55 60 65 70 75 80 85 90 95 100 105 110 115 120 125 130 135 140 145 150 154 158 163 167 171 176 181 186 190 194 199 204 208 212 217 222 227 232 237 242 247 252 257 261 266 271 275 280 285 0
d 291 208 271 0
d 292 290 208 271 0
d 293 290 208 271 0
d 294 1 2 6 7 12 13 18 23 24 29 30 35 40 45 50 55 60 65 70 75 80 85 90 95 100 105 110 115 120 125 130 135 140 145 150 154 158 163 167 171 176 181 186 190 194 199 204 208 212 217 222 227 232 237 242 247 252 257 261 266 271 275 280 285 290 0
d 296 295 176 0
d 297 295 176 0
d 298 1 2 6 7 12 13 18 23 24 29 30 35 40 45 50 55 60 65 70 75 80 85 90 95 100 105 110 115 120 125 130 135 140 145 150 154 158 163 167 171 176 181 186 190 194 199 204 208 212 217 222 227 232 237 242 247 252 257 261 266 271 275 280 285 290 295 0
d 301 2 300 0
d 302 299 2 300 0
d 303 299 2 300 0
d 304 1 2 6 7 12 13 18 23 24 29 30 35 40 45 50 55 60 65 70 75 80 85 90 95 100 105 110 115 120 125 130 135 140 145 150 154 158 163 167 171 176 181 186 190 194 199 204 208 212 217 222 227 232 237 242 247 252 257 261 266 271 275 280 285 290 295 299 300 0
d 306 181 171 0
d 307 305 181 171 0
d 308 305 181 171 0
d 309 1 2 6 7 12 13 18 23 24 29 30 35 40 45 50 55 60 65 70 75 80 85 90 95 100 105 110 115 120 125 130 135 140 145 150 154 158 163 167 171 176 181 186 190 194 199 204 208 212 217 222 227 232 237 242 247 252 257 261 266 271 275 280 285 290 295 299 300 305 0
d 311 310 305 0
d 312 310 305 0
d 313 1 2 6 7 12 13 18 23 24 29 30 35 40 45 50 55 60 65 70 75 80 85 90 95 100 105 110 115 120 125 130 135 140 145 150 154 158 163 167 171 176 181 186 190 194 199 204 208 212 217 222 227 232 237 242 247 252 257 261 266 271 275 280 285 290 295 299 300 305 310 0
d 315 314 271 0
d 316 314 271 0
d 317 1 2 6 7 12 13 18 23 24 29 30 35 40 45 50 55 60 65 70 75 80 85 90 95 100 105 110 115 120 125 130 135 140 145 150 154 158 163 167 171 176 181 186 190 194 199 204 208 212 217 222 227 232 237 242 247 252 257 261 266 271 275 280 285 290 295 299 300 305 310 314 0
d 319 318 154 0
d 320 318 154 0
d 321 1 2 6 7 12 13 18 23 24 29 30 35 40 45 50 55 60 65 70 75 80 85 90 95 100 105 110 115 120 125 130 135 140 145 150 154 158 163 167 171 176 181 186 190 194 199 204 208 212 217 222 227 232 237 242 247 252 257 261 266 271 275 280 285 290 295 299 300 305 310 314 318 0
d 323 433 2 176 0
d 325 433 2 176 436 186 190 0
d 327 440 2 199 0
d 329 204 328 0
d 330 204 328 212 0
d 331 440 2 199 204 328 212 0
d 332 433 2 176 436 186 190 440 199 204 328 212 0
d 334 204 333 0
d 335 204 333 222 0
d 337 204 336 0
d 338 204 336 227 0
d 339 204 333 222 336 227 0
d 341 204 340 0
d 342 204 340 232 0
d 344 204 343 0
d 345 204 343 237 0
d 346 204 340 232 343 237 0
d 347 204 333 222 336 227 340 232 343 237 0
d 348 433 2 176 436 186 190 440 199 204 328 212 333 222 336 227 340 232 343 237 0
d 350 459 2 247 0
d 352 204 351 0
d 353 204 351 252 0
d 354 459 2 247 204 351 252 0
d 357 204 356 0
d 358 204 356 266 0
d 359 261 465 2 204 356 266 0
d 360 459 2 247 204 351 252 261 465 356 266 0
d 362 204 361 0
d 363 204 361 275 0
d 365 204 364 0
d 366 204 364 280 0
d 367 204 361 275 364 280 0
d 369 204 368 0
d 370 204 368 285 0
d 372 204 371 0
d 373 204 371 290 0
d 374 204 368 285 371 290 0
d 375 204 361 275 364 280 368 285 371 290 0
d 376 459 2 247 204 351 252 261 465 356 266 361 275 364 280 368 285 371 290 0
d 377 433 2 176 436 186 190 440 199 204 328 212 333 222 336 227 340 232 343 237 459 247 351 252 261 465 356 266 361 275 364 280 368 285 371 290 0
d 380 2 379 0
d 381 2 379 199 0
d 383 2 382 0
d 384 2 382 212 0
d 385 2 379 199 382 212 0
d 386 295 299 310 2 485 379 199 382 212 0
d 388 2 494 222 0
d 390 2 389 0
d 391 2 389 227 0
d 392 2 494 222 389 227 0
d 394 2 393 0
d 395 2 393 232 0
d 397 2 396 0
d 398 2 396 237 0
d 399 2 393 232 396 237 0
d 400 2 494 222 389 227 393 232 396 237 0
d 401 295 299 310 2 485 379 199 382 212 494 222 389 227 393 232 396 237 0
d 403 2 402 0
d 404 2 402 247 0
d 406 2 405 0
d 407 2 405 252 0
d 408 2 402 247 405 252 0
d 410 2 409 0
d 411 2 409 13 257 30 7 0
d 413 2 412 0
d 414 2 412 266 0
d 415 2 409 13 257 30 7 412 266 0
d 416 2 402 247 405 252 409 13 257 30 7 412 266 0
d 418 2 417 0
d 419 2 417 275 0
d 421 2 417 275 512 314 7 318 0
d 423 2 422 0
d 424 2 422 285 0
d 426 2 425 0
d 427 2 425 290 0
d 428 2 422 285 425 290 0
d 429 2 417 275 512 314 7 318 422 285 425 290 0
d 430 2 402 247 405 252 409 13 257 30 7 412 266 417 275 512 314 318 422 285 425 290 0
d 431 295 299 310 2 485 379 199 382 212 494 222 389 227 393 232 396 237 402 247 405 252 409 13 257 30 7 412 266 417 275 512 314 318 422 285 425 290 0
d 432 433 2 176 436 186 190 440 199 204 328 212 333 222 336 227 340 232 343 237 459 247 351 252 261 465 356 266 361 275 364 280 368 285 371 290 295 299 310 485 379 382 494 389 393 396 402 405 409 13 257 30 7 412 417 512 314 318 422 425 0
d 434 1 433 0
d 435 1 433 40 0
d 437 1 436 0
d 438 1 436 50 0
d 439 1 433 40 436 50 0
d 441 1 440 0
d 442 1 440 60 0
d 443 1 328 0
d 444 1 328 70 0
d 445 1 440 60 328 70 0
d 446 1 433 40 436 50 440 60 328 70 0
d 447 1 333 0
d 448 1 333 80 0
d 449 1 336 0
d 450 1 336 85 0
d 451 1 333 80 336 85 0
d 452 1 340 0
d 453 1 340 90 0
d 454 1 343 0
d 455 1 343 95 0
d 456 1 340 90 343 95 0
d 457 1 333 80 336 85 340 90 343 95 0
d 458 1 433 40 436 50 440 60 328 70 333 80 336 85 340 90 343 95 0
d 460 1 459 0
d 461 1 459 105 0
d 462 1 351 0
d 463 1 351 110 0
d 464 1 459 105 351 110 0
d 466 1 465 0
d 467 1 465 115 0
d 468 1 356 0
d 469 1 356 120 0
d 470 1 465 115 356 120 0
d 471 1 459 105 351 110 465 115 356 120 0
d 472 1 361 0
d 473 1 361 130 0
d 474 1 364 0
d 475 1 364 135 0
d 476 1 361 130 364 135 0
d 477 1 368 0
d 478 1 368 140 0
d 479 1 371 0
d 480 1 371 145 0
d 481 1 368 140 371 145 0
d 482 1 361 130 364 135 368 140 371 145 0
d 483 1 459 105 351 110 465 115 356 120 361 130 364 135 368 140 371 145 0
d 484 1 433 40 436 50 440 60 328 70 333 80 336 85 340 90 343 95 459 105 351 110 465 115 356 120 361 130 364 135 368 140 371 145 0
d 486 2 485 0
d 487 2 485 40 0
d 488 2 300 50 0
d 489 2 485 40 300 50 0
d 490 2 379 60 0
d 491 2 382 70 0
d 492 2 379 60 382 70 0
d 493 2 485 40 300 50 379 60 382 70 0
d 495 2 494 0
d 496 2 494 80 0
d 497 2 389 85 0
d 498 2 494 80 389 85 0
d 499 2 393 90 0
d 500 2 396 95 0
d 501 2 393 90 396 95 0
d 502 2 494 80 389 85 393 90 396 95 0
d 503 2 485 40 300 50 379 60 382 70 494 80 389 85 393 90 396 95 0
d 504 2 402 105 0
d 505 2 405 110 0
d 506 2 402 105 405 110 0
d 507 2 409 115 0
d 508 2 412 120 0
d 509 2 409 115 412 120 0
d 510 2 402 105 405 110 409 115 412 120 0
d 511 2 417 130 0
d 513 2 512 0
d 514 2 512 135 0
d 515 2 417 130 512 135 0
d 516 2 422 140 0
d 517 2 425 145 0
d 518 2 422 140 425 145 0
d 519 2 417 130 512 135 422 140 425 145 0
d 520 2 402 105 405 110 409 115 412 120 417 130 512 135 422 140 425 145 0
d 521 2 485 40 300 50 379 60 382 70 494 80 389 85 393 90 396 95 402 105 405 110 409 115 412 120 417 130 512 135 422 140 425 145 0
d 522 1 433 40 436 50 440 60 328 70 333 80 336 85 340 90 343 95 459 105 351 110 465 115 356 120 361 130 364 135 368 140 371 145 2 485 300 379 382 494 389 393 396 402 405 409 412 417 512 422 425 0
d 523 433 2 176 436 186 190 440 199 204 328 212 333 222 336 227 340 232 343 237 459 247 351 252 261 465 356 266 361 275 364 280 368 285 371 290 295 299 310 485 379 382 494 389 393 396 402 405 409 13 257 30 7 412 417 512 314 318 422 425 1 40 50 60 70 80 85 90 95 105 110 115 120 130 135 140 145 300 0
d 524 1 2 6 7 12 13 18 23 24 29 30 35 40 45 50 55 60 65 70 75 80 85 90 95 100 105 110 115 120 125 130 135 140 145 150 154 158 163 167 171 176 181 186 190 194 199 204 208 212 217 222 227 232 237 242 247 252 257 261 266 271 275 280 285 290 295 299 300 305 310 314 318 433 436 440 328 333 336 340 343 459 351 465 356 361 364 368 371 485 379 382 494 389 393 396 402 405 409 412 417 512 422 425 0
3 2 0
-3 -2 0
4 -1 -3 0
4 1 3 0
-4 -1 3 0
-4 1 -3 0
5 4 0
-5 -4 0
8 7 0
-8 -7 0
9 -6 -8 0
9 6 8 0
-9 -6 8 0
-9 6 -8 0
10 9 0
-10 -9 0
11 -5 0
11 -10 0
-11 5 10 0
14 13 0
-14 -13 0
15 -12 -14 0
15 12 14 0
-15 -12 14 0
-15 12 -14 0
16 15 0
-16 -15 0
17 -11 0
17 -16 0
-17 11 16 0
-19 6 0
-19 12 0
19 -6 -12 0
20 -18 -19 0
20 18 19 0
-20 -18 19 0
-20 18 -19 0
21 20 0
-21 -20 0
22 -17 0
22 -21 0
-22 17 21 0
25 24 0
-25 -24 0
26 -23 -25 0
26 23 25 0
-26 -23 25 0
-26 23 -25 0
27 26 0
-27 -26 0
28 -22 0
28 -27 0
-28 22 27 0
31 30 0
-31 -30 0
32 -29 -31 0
32 29 31 0
-32 -29 31 0
-32 29 -31 0
33 32 0
-33 -32 0
34 -28 0
34 -33 0
-34 28 33 0
-36 23 0
-36 29 0
36 -23 -29 0
37 -35 -36 0
37 35 36 0
-37 -35 36 0
-37 35 -36 0
38 37 0
-38 -37 0
39 -34 0
39 -38 0
-39 34 38 0
-41 18 0
-41 35 0
41 -18 -35 0
42 -40 -41 0
42 40 41 0
-42 -40 41 0
-42 40 -41 0
43 42 0
-43 -42 0
44 -39 0
44 -43 0
-44 39 43 0
-46 7 0
-46 12 0
46 -7 -12 0
47 -45 -46 0
47 45 46 0
-47 -45 46 0
-47 45 -46 0
48 47 0
-48 -47 0
49 -44 0
49 -48 0
-49 44 48 0
-51 45 0
-51 35 0
51 -45 -35 0
52 -50 -51 0
52 50 51 0
-52 -50 51 0
-52 50 -51 0
53 52 0
-53 -52 0
54 -49 0
54 -53 0
-54 49 53 0
-56 6 0
-56 13 0
56 -6 -13 0
57 -55 -56 0
57 55 56 0
-57 -55 56 0
-57 55 -56 0
58 57 0
-58 -57 0
59 -54 0
59 -58 0
-59 54 58 0
-61 55 0
-61 35 0
61 -55 -35 0
62 -60 -61 0
62 60 61 0
-62 -60 61 0
-62 60 -61 0
63 62 0
-63 -62 0
64 -59 0
64 -63 0
-64 59 63 0
-66 7 0
-66 13 0
66 -7 -13 0
67 -65 -66 0
67 65 66 0
-67 -65 66 0
-67 65 -66 0
68 67 0
-68 -67 0
69 -64 0
69 -68 0
-69 64 68 0
-71 65 0
-71 35 0
71 -65 -35 0
72 -70 -71 0
72 70 71 0
-72 -70 71 0
-72 70 -71 0
73 72 0
-73 -72 0
74 -69 0
74 -73 0
-74 69 73 0
-76 24 0
-76 29 0
76 -24 -29 0
77 -75 -76 0
77 75 76 0
-77 -75 76 0
-77 75 -76 0
78 77 0
-78 -77 0
79 -74 0
79 -78 0
-79 74 78 0
-81 18 0
-81 75 0
81 -18 -75 0
82 -80 -81 0
82 80 81 0
-82 -80 81 0
-82 80 -81 0
83 82 0
-83 -82 0
84 -79 0
84 -83 0
-84 79 83 0
-86 45 0
-86 75 0
86 -45 -75 0
87 -85 -86 0
87 85 86 0
-87 -85 86 0
-87 85 -86 0
88 87 0
-88 -87 0
89 -84 0
89 -88 0
-89 84 88 0
-91 55 0
-91 75 0
91 -55 -75 0
92 -90 -91 0
92 90 91 0
-92 -90 91 0
-92 90 -91 0
93 92 0
-93 -92 0
94 -89 0
94 -93 0
-94 89 93 0
-96 65 0
-96 75 0
96 -65 -75 0
97 -95 -96 0
97 95 96 0
-97 -95 96 0
-97 95 -96 0
98 97 0
-98 -97 0
99 -94 0
99 -98 0
-99 94 98 0
-101 23 0
-101 30 0
101 -23 -30 0
102 -100 -101 0
102 100 101 0
-102 -100 101 0
-102 100 -101 0
103 102 0
-103 -102 0
104 -99 0
104 -103 0
-104 99 103 0
-106 18 0
-106 100 0
106 -18 -100 0
107 -105 -106 0
107 105 106 0
-107 -105 106 0
-107 105 -106 0
108 107 0
-108 -107 0
109 -104 0
109 -108 0
-109 104 108 0
-111 45 0
-111 100 0
111 -45 -100 0
112 -110 -111 0
112 110 111 0
-112 -110 111 0
-112 110 -111 0
113 112 0
-113 -112 0
114 -109 0
114 -113 0
-114 109 113 0
-116 55 0
-116 100 0
116 -55 -100 0
117 -115 -116 0
117 115 116 0
-117 -115 116 0
-117 115 -116 0
118 117 0
-118 -117 0
119 -114 0
119 -118 0
-119 114 118 0
-121 65 0
-121 100 0
121 -65 -100 0
122 -120 -121 0
122 120 121 0
-122 -120 121 0
-122 120 -121 0
123 122 0
-123 -122 0
124 -119 0
124 -123 0
-124 119 123 0
-126 24 0
-126 30 0
126 -24 -30 0
127 -125 -126 0
127 125 126 0
-127 -125 126 0
-127 125 -126 0
128 127 0
-128 -127 0
129 -124 0
129 -128 0
-129 124 128 0
-131 18 0
-131 125 0
131 -18 -125 0
132 -130 -131 0
132 130 131 0
-132 -130 131 0
-132 130 -131 0
133 132 0
-133 -132 0
134 -129 0
134 -133 0
-134 129 133 0
-136 45 0
-136 125 0
136 -45 -125 0
137 -135 -136 0
137 135 136 0
-137 -135 136 0
-137 135 -136 0
138 137 0
-138 -137 0
139 -134 0
139 -138 0
-139 134 138 0
-141 55 0
-141 125 0
141 -55 -125 0
142 -140 -141 0
142 140 141 0
-142 -140 141 0
-142 140 -141 0
143 142 0
-143 -142 0
144 -139 0
144 -143 0
-144 139 143 0
-146 65 0
-146 125 0
146 -65 -125 0
147 -145 -146 0
147 145 146 0
-147 -145 146 0
-147 145 -146 0
148 147 0
-148 -147 0
149 -144 0
149 -148 0
-149 144 148 0
151 -150 -8 0
151 150 8 0
-151 -150 8 0
-151 150 -8 0
152 151 0
-152 -151 0
153 -149 0
153 -152 0
-153 149 152 0
155 -154 -14 0
155 154 14 0
-155 -154 14 0
-155 154 -14 0
156 155 0
-156 -155 0
157 -153 0
157 -156 0
-157 153 156 0
-159 150 0
-159 154 0
159 -150 -154 0
160 -158 -159 0
160 158 159 0
-160 -158 159 0
-160 158 -159 0
161 160 0
-161 -160 0
162 -157 0
162 -161 0
-162 157 161 0
164 -163 -25 0
164 163 25 0
-164 -163 25 0
-164 163 -25 0
165 164 0
-165 -164 0
166 -162 0
166 -165 0
-166 162 165 0
168 -167 -31 0
168 167 31 0
-168 -167 31 0
-168 167 -31 0
169 168 0
-169 -168 0
170 -166 0
170 -169 0
-170 166 169 0
-172 163 0
-172 167 0
172 -163 -167 0
173 -171 -172 0
173 171 172 0
-173 -171 172 0
-173 171 -172 0
174 173 0
-174 -173 0
175 -170 0
175 -174 0
-175 170 174 0
-177 158 0
-177 171 0
177 -158 -171 0
178 -176 -177 0
178 176 177 0
-178 -176 177 0
-178 176 -177 0
179 178 0
-179 -178 0
180 -175 0
180 -179 0
-180 175 179 0
-182 7 0
-182 154 0
182 -7 -154 0
183 -181 -182 0
183 181 182 0
-183 -181 182 0
-183 181 -182 0
184 183 0
-184 -183 0
185 -180 0
185 -184 0
-185 180 184 0
187 -186 -181 0
187 186 181 0
-187 -186 181 0
-187 186 -181 0
188 187 0
-188 -187 0
189 -185 0
189 -188 0
-189 185 188 0
191 -190 -171 0
191 190 171 0
-191 -190 171 0
-191 190 -171 0
192 191 0
-192 -191 0
193 -189 0
193 -192 0
-193 189 192 0
-195 150 0
-195 13 0
195 -150 -13 0
196 -194 -195 0
196 194 195 0
-196 -194 195 0
-196 194 -195 0
197 196 0
-197 -196 0
198 -193 0
198 -197 0
-198 193 197 0
-200 194 0
-200 171 0
200 -194 -171 0
201 -199 -200 0
201 199 200 0
-201 -199 200 0
-201 199 -200 0
202 201 0
-202 -201 0
203 -198 0
203 -202 0
-203 198 202 0
205 -204 -3 0
205 204 3 0
-205 -204 3 0
-205 204 -3 0
206 205 0
-206 -205 0
207 -203 0
207 -206 0
-207 203 206 0
209 -208 -66 0
209 208 66 0
-209 -208 66 0
-209 208 -66 0
210 209 0
-210 -209 0
211 -207 0
211 -210 0
-211 207 210 0
-213 208 0
-213 171 0
213 -208 -171 0
214 -212 -213 0
214 212 213 0
-214 -212 213 0
-214 212 -213 0
215 214 0
-215 -214 0
216 -211 0
216 -215 0
-216 211 215 0
-218 24 0
-218 167 0
218 -24 -167 0
219 -217 -218 0
219 217 218 0
-219 -217 218 0
-219 217 -218 0
220 219 0
-220 -219 0
221 -216 0
221 -220 0
-221 216 220 0
-223 158 0
-223 217 0
223 -158 -217 0
224 -222 -223 0
224 222 223 0
-224 -222 223 0
-224 222 -223 0
225 224 0
-225 -224 0
226 -221 0
226 -225 0
-226 221 225 0
-228 181 0
-228 217 0
228 -181 -217 0
229 -227 -228 0
229 227 228 0
-229 -227 228 0
-229 227 -228 0
230 229 0
-230 -229 0
231 -226 0
231 -230 0
-231 226 230 0
-233 194 0
-233 217 0
233 -194 -217 0
234 -232 -233 0
234 232 233 0
-234 -232 233 0
-234 232 -233 0
235 234 0
-235 -234 0
236 -231 0
236 -235 0
-236 231 235 0
-238 208 0
-238 217 0
238 -208 -217 0
239 -237 -238 0
239 237 238 0
-239 -237 238 0
-239 237 -238 0
240 239 0
-240 -239 0
241 -236 0
241 -240 0
-241 236 240 0
-243 163 0
-243 30 0
243 -163 -30 0
244 -242 -243 0
244 242 243 0
-244 -242 243 0
-244 242 -243 0
245 244 0
-245 -244 0
246 -241 0
246 -245 0
-246 241 245 0
-248 158 0
-248 242 0
248 -158 -242 0
249 -247 -248 0
249 247 248 0
-249 -247 248 0
-249 247 -248 0
250 249 0
-250 -249 0
251 -246 0
251 -250 0
-251 246 250 0
253 -181 0
253 -242 0
-253 181 242 0
254 -252 -253 0
254 252 253 0
-254 -252 253 0
-254 252 -253 0
255 254 0
-255 -254 0
256 -251 0
256 -255 0
-256 251 255 0
258 -257 -163 0
258 257 163 0
-258 -257 163 0
-258 257 -163 0
259 258 0
-259 -258 0
260 -256 0
260 -259 0
-260 256 259 0
263 -261 -262 0
263 261 262 0
-263 -261 262 0
-263 261 -262 0
264 263 0
-264 -263 0
265 -260 0
265 -264 0
-265 260 264 0
-267 208 0
-267 242 0
267 -208 -242 0
268 -266 -267 0
268 266 267 0
-268 -266 267 0
-268 266 -267 0
269 268 0
-269 -268 0
270 -265 0
270 -269 0
-270 265 269 0
272 -271 -126 0
272 271 126 0
-272 -271 126 0
-272 271 -126 0
273 272 0
-273 -272 0
274 -270 0
274 -273 0
-274 270 273 0
-276 158 0
-276 271 0
276 -158 -271 0
277 -275 -276 0
277 275 276 0
-277 -275 276 0
-277 275 -276 0
278 277 0
-278 -277 0
279 -274 0
279 -278 0
-279 274 278 0
-281 181 0
-281 271 0
281 -181 -271 0
282 -280 -281 0
282 280 281 0
-282 -280 281 0
-282 280 -281 0
283 282 0
-283 -282 0
284 -279 0
284 -283 0
-284 279 283 0
-286 194 0
-286 271 0
286 -194 -271 0
287 -285 -286 0
287 285 286 0
-287 -285 286 0
-287 285 -286 0
288 287 0
-288 -287 0
289 -284 0
289 -288 0
-289 284 288 0
-291 208 0
-291 271 0
291 -208 -271 0
292 -290 -291 0
292 290 291 0
-292 -290 291 0
-292 290 -291 0
293 292 0
-293 -292 0
294 -289 0
294 -293 0
-294 289 293 0
296 -295 -176 0
296 295 176 0
-296 -295 176 0
-296 295 -176 0
297 296 0
-297 -296 0
298 -294 0
298 -297 0
-298 294 297 0
-301 2 0
-301 300 0
301 -2 -300 0
302 -299 -301 0
302 299 301 0
-302 -299 301 0
-302 299 -301 0
303 302 0
-303 -302 0
304 -298 0
304 -303 0
-304 298 303 0
-306 181 0
-306 171 0
306 -181 -171 0
307 -305 -306 0
307 305 306 0
-307 -305 306 0
-307 305 -306 0
308 307 0
-308 -307 0
309 -304 0
309 -308 0
-309 304 308 0
311 -310 -305 0
311 310 305 0
-311 -310 305 0
-311 310 -305 0
312 311 0
-312 -311 0
313 -309 0
313 -312 0
-313 309 312 0
315 -314 -271 0
315 314 271 0
-315 -314 271 0
-315 314 -271 0
316 315 0
-316 -315 0
317 -313 0
317 -316 0
-317 313 316 0
319 -318 -154 0
319 318 154 0
-319 -318 154 0
-319 318 -154 0
320 319 0
-320 -319 0
321 -317 0
321 -320 0
-321 317 320 0
-323 322 0
-323 176 0
323 -322 -176 0
325 -323 0
325 -324 0
-325 323 324 0
-327 326 0
-327 199 0
327 -326 -199 0
-329 204 0
-329 328 0
329 -204 -328 0
-330 329 0
-330 212 0
330 -329 -212 0
331 -327 0
331 -330 0
-331 327 330 0
332 -325 0
332 -331 0
-332 325 331 0
-334 204 0
-334 333 0
334 -204 -333 0
-335 334 0
-335 222 0
335 -334 -222 0
-337 204 0
-337 336 0
337 -204 -336 0
-338 337 0
-338 227 0
338 -337 -227 0
339 -335 0
339 -338 0
-339 335 338 0
-341 204 0
-341 340 0
341 -204 -340 0
-342 341 0
-342 232 0
342 -341 -232 0
-344 204 0
-344 343 0
344 -204 -343 0
-345 344 0
-345 237 0
345 -344 -237 0
346 -342 0
346 -345 0
-346 342 345 0
347 -339 0
347 -346 0
-347 339 346 0
348 -332 0
348 -347 0
-348 332 347 0
-350 349 0
-350 247 0
350 -349 -247 0
-352 204 0
-352 351 0
352 -204 -351 0
-353 352 0
-353 252 0
353 -352 -252 0
354 -350 0
354 -353 0
-354 350 353 0
-357 204 0
-357 356 0
357 -204 -356 0
-358 357 0
-358 266 0
358 -357 -266 0
359 -355 0
359 -358 0
-359 355 358 0
360 -354 0
360 -359 0
-360 354 359 0
-362 204 0
-362 361 0
362 -204 -361 0
-363 362 0
-363 275 0
363 -362 -275 0
-365 204 0
-365 364 0
365 -204 -364 0
-366 365 0
-366 280 0
366 -365 -280 0
367 -363 0
367 -366 0
-367 363 366 0
-369 204 0
-369 368 0
369 -204 -368 0
-370 369 0
-370 285 0
370 -369 -285 0
-372 204 0
-372 371 0
372 -204 -371 0
-373 372 0
-373 290 0
373 -372 -290 0
374 -370 0
374 -373 0
-374 370 373 0
375 -367 0
375 -374 0
-375 367 374 0
376 -360 0
376 -375 0
-376 360 375 0
377 -348 0
377 -376 0
-377 348 376 0
-380 2 0
-380 379 0
380 -2 -379 0
-381 380 0
-381 199 0
381 -380 -199 0
-383 2 0
-383 382 0
383 -2 -382 0
-384 383 0
-384 212 0
384 -383 -212 0
385 -381 0
385 -384 0
-385 381 384 0
386 -378 0
386 -385 0
-386 378 385 0
-388 387 0
-388 222 0
388 -387 -222 0
-390 2 0
-390 389 0
390 -2 -389 0
-391 390 0
-391 227 0
391 -390 -227 0
392 -388 0
392 -391 0
-392 388 391 0
-394 2 0
-394 393 0
394 -2 -393 0
-395 394 0
-395 232 0
395 -394 -232 0
-397 2 0
-397 396 0
397 -2 -396 0
-398 397 0
-398 237 0
398 -397 -237 0
399 -395 0
399 -398 0
-399 395 398 0
400 -392 0
400 -399 0
-400 392 399 0
401 -386 0
401 -400 0
-401 386 400 0
-403 2 0
-403 402 0
403 -2 -402 0
-404 403 0
-404 247 0
404 -403 -247 0
-406 2 0
-406 405 0
406 -2 -405 0
-407 406 0
-407 252 0
407 -406 -252 0
408 -404 0
408 -407 0
-408 404 407 0
-410 2 0
-410 409 0
410 -2 -409 0
-411 410 0
-411 262 0
411 -410 -262 0
-413 2 0
-413 412 0
413 -2 -412 0
-414 413 0
-414 266 0
414 -413 -266 0
415 -411 0
415 -414 0
-415 411 414 0
416 -408 0
416 -415 0
-416 408 415 0
-418 2 0
-418 417 0
418 -2 -417 0
-419 418 0
-419 275 0
419 -418 -275 0
421 -419 0
421 -420 0
-421 419 420 0
-423 2 0
-423 422 0
423 -2 -422 0
-424 423 0
-424 285 0
424 -423 -285 0
-426 2 0
-426 425 0
426 -2 -425 0
-427 426 0
-427 290 0
427 -426 -290 0
428 -424 0
428 -427 0
-428 424 427 0
429 -421 0
429 -428 0
-429 421 428 0
430 -416 0
430 -429 0
-430 416 429 0
431 -401 0
431 -430 0
-431 401 430 0
432 -377 0
432 -431 0
-432 377 431 0
-434 1 0
-434 433 0
434 -1 -433 0
-435 434 0
-435 40 0
435 -434 -40 0
-437 1 0
-437 436 0
437 -1 -436 0
-438 437 0
-438 50 0
438 -437 -50 0
439 -435 0
439 -438 0
-439 435 438 0
-441 1 0
-441 440 0
441 -1 -440 0
-442 441 0
-442 60 0
442 -441 -60 0
-443 1 0
-443 328 0
443 -1 -328 0
-444 443 0
-444 70 0
444 -443 -70 0
445 -442 0
445 -444 0
-445 442 444 0
446 -439 0
446 -445 0
-446 439 445 0
-447 1 0
-447 333 0
447 -1 -333 0
-448 447 0
-448 80 0
448 -447 -80 0
-449 1 0
-449 336 0
449 -1 -336 0
-450 449 0
-450 85 0
450 -449 -85 0
451 -448 0
451 -450 0
-451 448 450 0
-452 1 0
-452 340 0
452 -1 -340 0
-453 452 0
-453 90 0
453 -452 -90 0
-454 1 0
-454 343 0
454 -1 -343 0
-455 454 0
-455 95 0
455 -454 -95 0
456 -453 0
456 -455 0
-456 453 455 0
457 -451 0
457 -456 0
-457 451 456 0
458 -446 0
458 -457 0
-458 446 457 0
-460 1 0
-460 459 0
460 -1 -459 0
-461 460 0
-461 105 0
461 -460 -105 0
-462 1 0
-462 351 0
462 -1 -351 0
-463 462 0
-463 110 0
463 -462 -110 0
464 -461 0
464 -463 0
-464 461 463 0
-466 1 0
-466 465 0
466 -1 -465 0
-467 466 0
-467 115 0
467 -466 -115 0
-468 1 0
-468 356 0
468 -1 -356 0
-469 468 0
-469 120 0
469 -468 -120 0
470 -467 0
470 -469 0
-470 467 469 0
471 -464 0
471 -470 0
-471 464 470 0
-472 1 0
-472 361 0
472 -1 -361 0
-473 472 0
-473 130 0
473 -472 -130 0
-474 1 0
-474 364 0
474 -1 -364 0
-475 474 0
-475 135 0
475 -474 -135 0
476 -473 0
476 -475 0
-476 473 475 0
-477 1 0
-477 368 0
477 -1 -368 0
-478 477 0
-478 140 0
478 -477 -140 0
-479 1 0
-479 371 0
479 -1 -371 0
-480 479 0
-480 145 0
480 -479 -145 0
481 -478 0
481 -480 0
-481 478 480 0
482 -476 0
482 -481 0
-482 476 481 0
483 -471 0
483 -482 0
-483 471 482 0
484 -458 0
484 -483 0
-484 458 483 0
-486 2 0
-486 485 0
486 -2 -485 0
-487 486 0
-487 40 0
487 -486 -40 0
-488 301 0
-488 50 0
488 -301 -50 0
489 -487 0
489 -488 0
-489 487 488 0
-490 380 0
-490 60 0
490 -380 -60 0
-491 383 0
-491 70 0
491 -383 -70 0
492 -490 0
492 -491 0
-492 490 491 0
493 -489 0
493 -492 0
-493 489 492 0
-495 2 0
-495 494 0
495 -2 -494 0
-496 495 0
-496 80 0
496 -495 -80 0
-497 390 0
-497 85 0
497 -390 -85 0
498 -496 0
498 -497 0
-498 496 497 0
-499 394 0
-499 90 0
499 -394 -90 0
-500 397 0
-500 95 0
500 -397 -95 0
501 -499 0
501 -500 0
-501 499 500 0
502 -498 0
502 -501 0
-502 498 501 0
503 -493 0
503 -502 0
-503 493 502 0
-504 403 0
-504 105 0
504 -403 -105 0
-505 406 0
-505 110 0
505 -406 -110 0
506 -504 0
506 -505 0
-506 504 505 0
-507 410 0
-507 115 0
507 -410 -115 0
-508 413 0
-508 120 0
508 -413 -120 0
509 -507 0
509 -508 0
-509 507 508 0
510 -506 0
510 -509 0
-510 506 509 0
-511 418 0
-511 130 0
511 -418 -130 0
-513 2 0
-513 512 0
513 -2 -512 0
-514 513 0
-514 135 0
514 -513 -135 0
515 -511 0
515 -514 0
-515 511 514 0
-516 423 0
-516 140 0
516 -423 -140 0
-517 426 0
-517 145 0
517 -426 -145 0
518 -516 0
518 -517 0
-518 516 517 0
519 -515 0
519 -518 0
-519 515 518 0
520 -510 0
520 -519 0
-520 510 519 0
521 -503 0
521 -520 0
-521 503 520 0
522 -484 0
522 -521 0
-522 484 521 0
523 -432 -522 0
523 432 522 0
-523 -432 522 0
-523 432 -522 0
524 -321 0
524 -523 0
-524 321 523 0
524 0
